language Essence 1.3

letting class be function(1 --> 1, 2 --> 1, 3 --> 1, 4 --> 2)
letting deck_length be 15
letting deck_width be 63
letting length be function(1 --> 14, 2 --> 8, 3 --> 10, 4 --> 7)
letting n_classes be 2
letting n_containers be 4
letting separation be function()
letting width be function(1 --> 23, 2 --> 1, 3 --> 26, 4 --> 2)
